
Gurobi 9.5.2 (mac64[arm]) logging started Thu Apr 27 19:56:03 2023

Set parameter LogFile to value "Java/output/iterative_model_full/scenario_seed_3_nJob_50_machineCount_1/mip_increment_2/log.txt"
Gurobi Optimizer version 9.5.2 build v9.5.2rc0 (mac64[arm])
Thread count: 8 physical cores, 8 logical processors, using up to 8 threads
Optimize a model with 1470 rows, 10252 columns and 76965 nonzeros
Model fingerprint: 0x3ffe5d52
Variable types: 0 continuous, 10252 integer (10252 binary)
Coefficient statistics:
  Matrix range     [1e+00, 5e+02]
  Objective range  [2e+01, 2e+07]
  Bounds range     [1e+00, 1e+00]
  RHS range        [1e+00, 1e+00]
Found heuristic solution: objective 1.151491e+08
Presolve removed 37 rows and 523 columns
Presolve time: 0.09s
Presolved: 1433 rows, 9729 columns, 71340 nonzeros
Variable types: 0 continuous, 9729 integer (9721 binary)
Found heuristic solution: objective 1.057042e+08

Root relaxation: objective 1.420654e+04, 3087 iterations, 0.13 seconds (0.29 work units)

    Nodes    |    Current Node    |     Objective Bounds      |     Work
 Expl Unexpl |  Obj  Depth IntInf | Incumbent    BestBd   Gap | It/Node Time

     0     0 14206.5378    0  135 1.0570e+08 14206.5378   100%     -    0s
H    0     0                    6.952170e+07 14206.5378   100%     -    0s
H    0     0                    17216.000000 14206.5378  17.5%     -    0s
H    0     0                    16704.000000 14206.5378  15.0%     -    0s
     0     0 14246.1048    0  184 16704.0000 14246.1048  14.7%     -    0s
     0     0 14246.1048    0  138 16704.0000 14246.1048  14.7%     -    0s
H    0     0                    16608.000000 14246.1048  14.2%     -    0s
     0     0 14265.6121    0  191 16608.0000 14265.6121  14.1%     -    0s
     0     0 14269.4905    0  189 16608.0000 14269.4905  14.1%     -    0s
     0     0 14269.5516    0  196 16608.0000 14269.5516  14.1%     -    0s
     0     0 14269.5542    0  195 16608.0000 14269.5542  14.1%     -    0s
     0     0 14314.3648    0  244 16608.0000 14314.3648  13.8%     -    1s
     0     0 14315.5725    0  240 16608.0000 14315.5725  13.8%     -    1s
     0     0 14316.0733    0  240 16608.0000 14316.0733  13.8%     -    1s
     0     0 14316.0733    0  243 16608.0000 14316.0733  13.8%     -    1s
     0     0 14335.6396    0  289 16608.0000 14335.6396  13.7%     -    1s
     0     0 14336.3875    0  285 16608.0000 14336.3875  13.7%     -    1s
     0     0 14336.4788    0  287 16608.0000 14336.4788  13.7%     -    1s
     0     0 14336.4857    0  287 16608.0000 14336.4857  13.7%     -    1s
     0     0 14357.9910    0  289 16608.0000 14357.9910  13.5%     -    1s
     0     0 14358.9679    0  298 16608.0000 14358.9679  13.5%     -    1s
     0     0 14358.9986    0  309 16608.0000 14358.9986  13.5%     -    1s
     0     0 14374.8553    0  311 16608.0000 14374.8553  13.4%     -    1s
     0     0 14379.2739    0  309 16608.0000 14379.2739  13.4%     -    1s
     0     0 14379.6613    0  318 16608.0000 14379.6613  13.4%     -    1s
     0     0 14380.0402    0  316 16608.0000 14380.0402  13.4%     -    1s
     0     0 14380.0612    0  321 16608.0000 14380.0612  13.4%     -    1s
     0     0 14391.7617    0  328 16608.0000 14391.7617  13.3%     -    1s
     0     0 14396.3684    0  341 16608.0000 14396.3684  13.3%     -    1s
     0     0 14397.0874    0  340 16608.0000 14397.0874  13.3%     -    1s
     0     0 14397.1618    0  344 16608.0000 14397.1618  13.3%     -    1s
     0     0 14405.6849    0  332 16608.0000 14405.6849  13.3%     -    1s
     0     0 14406.8429    0  336 16608.0000 14406.8429  13.3%     -    1s
     0     0 14407.4893    0  352 16608.0000 14407.4893  13.2%     -    1s
     0     0 14407.7106    0  363 16608.0000 14407.7106  13.2%     -    1s
     0     0 14407.8914    0  357 16608.0000 14407.8914  13.2%     -    1s
H    0     0                    16480.000000 14407.8914  12.6%     -    1s
H    0     0                    16448.000000 14407.8914  12.4%     -    1s
     0     0 14420.1652    0  355 16448.0000 14420.1652  12.3%     -    1s
     0     0 14424.6604    0  359 16448.0000 14424.6604  12.3%     -    1s
     0     0 14426.7349    0  371 16448.0000 14426.7349  12.3%     -    1s
     0     0 14427.5643    0  370 16448.0000 14427.5643  12.3%     -    1s
     0     0 14427.8132    0  372 16448.0000 14427.8132  12.3%     -    1s
     0     0 14427.8878    0  377 16448.0000 14427.8878  12.3%     -    1s
     0     0 14439.9719    0  381 16448.0000 14439.9719  12.2%     -    2s
     0     0 14445.3153    0  385 16448.0000 14445.3153  12.2%     -    2s
     0     0 14448.3770    0  385 16448.0000 14448.3770  12.2%     -    2s
     0     0 14449.1167    0  398 16448.0000 14449.1167  12.2%     -    2s
     0     0 14449.2298    0  394 16448.0000 14449.2298  12.2%     -    2s
     0     0 14468.7849    0  409 16448.0000 14468.7849  12.0%     -    2s
     0     0 14474.1916    0  421 16448.0000 14474.1916  12.0%     -    2s
     0     0 14474.7578    0  431 16448.0000 14474.7578  12.0%     -    2s
     0     0 14474.9797    0  433 16448.0000 14474.9797  12.0%     -    2s
     0     0 14485.8197    0  411 16448.0000 14485.8197  11.9%     -    2s
H    0     0                    16256.000000 14485.8197  10.9%     -    2s
     0     0 14488.1947    0  425 16256.0000 14488.1947  10.9%     -    2s
     0     0 14489.4939    0  431 16256.0000 14489.4939  10.9%     -    2s
     0     0 14489.7917    0  446 16256.0000 14489.7917  10.9%     -    2s
H    0     0                    16192.000000 14489.7917  10.5%     -    2s
     0     0 14498.2974    0  442 16192.0000 14498.2974  10.5%     -    2s
     0     0 14499.9359    0  434 16192.0000 14499.9359  10.5%     -    2s
     0     0 14500.2743    0  439 16192.0000 14500.2743  10.4%     -    2s
H    0     0                    16160.000000 14500.2743  10.3%     -    3s
H    0     0                    15968.000000 14500.2743  9.19%     -    3s
     0     0 14506.2096    0  431 15968.0000 14506.2096  9.15%     -    3s
H    0     0                    15840.000000 14506.2096  8.42%     -    3s
     0     0 14508.0931    0  429 15840.0000 14508.0931  8.41%     -    3s
     0     0 14509.0894    0  451 15840.0000 14509.0894  8.40%     -    3s
     0     0 14509.3396    0  455 15840.0000 14509.3396  8.40%     -    3s
     0     0 14513.9266    0  432 15840.0000 14513.9266  8.37%     -    3s
     0     0 14515.2971    0  460 15840.0000 14515.2971  8.36%     -    3s
     0     0 14515.8568    0  458 15840.0000 14515.8568  8.36%     -    3s
     0     0 14516.1053    0  467 15840.0000 14516.1053  8.36%     -    3s
     0     0 14520.0824    0  434 15840.0000 14520.0824  8.33%     -    3s
     0     0 14520.7673    0  468 15840.0000 14520.7673  8.33%     -    3s
     0     0 14521.0969    0  456 15840.0000 14521.0969  8.33%     -    3s
     0     0 14523.3155    0  452 15840.0000 14523.3155  8.31%     -    3s
     0     0 14523.3155    0  452 15840.0000 14523.3155  8.31%     -    3s
     0     2 14523.4188    0  448 15840.0000 14523.4188  8.31%     -    4s
H   31    40                    15264.000000 14526.8053  4.83%   664    5s
H   69    77                    15200.000000 14526.8053  4.43%   608    5s
H   71    77                    15136.000000 14526.8053  4.02%   592    5s
H  111   110                    15104.000000 14526.8053  3.82%   586    6s
H  112   110                    15072.000000 14526.8053  3.62%   583    6s
H  148   139                    15040.000000 14526.8053  3.41%   573    7s
H  150   139                    14976.000000 14526.8053  3.00%   582    7s
H  154   139                    14912.000000 14526.8053  2.58%   577    7s
   317   236 14612.1176   20  388 14912.0000 14526.8053  2.58%   573   10s
   776   462 14810.9289   43  291 14912.0000 14526.8053  2.58%   509   15s

Cutting planes:
  Gomory: 1
  Cover: 3
  Clique: 150
  MIR: 228
  StrongCG: 110
  GUB cover: 87
  Zero half: 6
  Mod-K: 3

Explored 955 nodes (492949 simplex iterations) in 16.01 seconds (41.25 work units)
Thread count was 8 (of 8 available processors)

Solution count 10: 14912 14976 15040 ... 15968

Time limit reached
Best objective 1.491200000000e+04, best bound 1.457600000000e+04, gap 2.2532%

Gurobi 9.5.2 (mac64[arm]) logging started Thu Apr 27 19:56:19 2023

Set parameter LogFile to value "Java/output/iterative_model_full/scenario_seed_3_nJob_50_machineCount_1/mip_increment_2/log.txt"
Gurobi Optimizer version 9.5.2 build v9.5.2rc0 (mac64[arm])
Thread count: 8 physical cores, 8 logical processors, using up to 8 threads
Optimize a model with 1472 rows, 8296 columns and 63070 nonzeros
Model fingerprint: 0x3a418485
Variable types: 0 continuous, 8296 integer (8296 binary)
Coefficient statistics:
  Matrix range     [1e+00, 5e+02]
  Objective range  [4e+02, 4e+06]
  Bounds range     [1e+00, 1e+00]
  RHS range        [1e+00, 1e+00]
Found heuristic solution: objective 1.217092e+07
Presolve removed 320 rows and 336 columns
Presolve time: 0.08s
Presolved: 1152 rows, 7960 columns, 60069 nonzeros
Variable types: 0 continuous, 7960 integer (7958 binary)
Found heuristic solution: objective 1.064076e+07

Root relaxation: objective 1.036800e+04, 2278 iterations, 0.07 seconds (0.14 work units)

    Nodes    |    Current Node    |     Objective Bounds      |     Work
 Expl Unexpl |  Obj  Depth IntInf | Incumbent    BestBd   Gap | It/Node Time

     0     0 10368.0000    0   65 1.0641e+07 10368.0000   100%     -    0s
H    0     0                    4490948.0000 10368.0000   100%     -    0s
H    0     0                    3987964.0000 10368.0000   100%     -    0s
H    0     0                    2381268.0000 10368.0000   100%     -    0s
H    0     0                    822108.00000 10371.1806  98.7%     -    0s
     0     0 10371.1806    0   62 822108.000 10371.1806  98.7%     -    0s
H    0     0                    10884.000000 10371.1806  4.71%     -    0s
     0     0 10383.2386    0  115 10884.0000 10383.2386  4.60%     -    0s
     0     0 10383.2386    0   76 10884.0000 10383.2386  4.60%     -    0s
H    0     0                    10836.000000 10383.2386  4.18%     -    0s
     0     0 10444.6681    0  105 10836.0000 10444.6681  3.61%     -    0s
H    0     0                    10820.000000 10444.6681  3.47%     -    0s
     0     0 10444.6681    0  113 10820.0000 10444.6681  3.47%     -    0s
H    0     0                    10804.000000 10444.6681  3.33%     -    0s
     0     0 10455.9277    0  116 10804.0000 10455.9277  3.22%     -    0s
H    0     0                    10788.000000 10455.9277  3.08%     -    0s
     0     0 10456.0390    0  126 10788.0000 10456.0390  3.08%     -    0s
     0     0 10457.0875    0  131 10788.0000 10457.0875  3.07%     -    0s
     0     0 10457.0921    0  123 10788.0000 10457.0921  3.07%     -    0s
     0     0 10474.7229    0  135 10788.0000 10474.7229  2.90%     -    0s
     0     0 10475.7899    0  126 10788.0000 10475.7899  2.89%     -    0s
     0     0 10476.5751    0  135 10788.0000 10476.5751  2.89%     -    0s
     0     0 10476.6132    0  142 10788.0000 10476.6132  2.89%     -    0s
     0     0 10476.6159    0  141 10788.0000 10476.6159  2.89%     -    0s
H    0     0                    10780.000000 10476.6159  2.81%     -    0s
     0     0 10489.8473    0  161 10780.0000 10489.8473  2.69%     -    0s
H    0     0                    10764.000000 10489.8473  2.55%     -    0s
     0     0 10494.9470    0  182 10764.0000 10494.9470  2.50%     -    0s
     0     0 10496.9579    0  182 10764.0000 10496.9579  2.48%     -    0s
     0     0 10497.3292    0  196 10764.0000 10497.3292  2.48%     -    0s
     0     0 10497.8594    0  196 10764.0000 10497.8594  2.47%     -    0s
     0     0 10498.0405    0  196 10764.0000 10498.0405  2.47%     -    0s
     0     0 10498.4543    0  198 10764.0000 10498.4543  2.47%     -    0s
     0     0 10498.9034    0  199 10764.0000 10498.9034  2.46%     -    1s
     0     0 10498.9678    0  195 10764.0000 10498.9678  2.46%     -    1s
     0     0 10498.9810    0  202 10764.0000 10498.9810  2.46%     -    1s
H    0     0                    10756.000000 10498.9810  2.39%     -    1s
     0     0 10502.5449    0  203 10756.0000 10502.5449  2.36%     -    1s
H    0     0                    10652.000000 10502.5449  1.40%     -    1s
     0     0 10503.8182    0  205 10652.0000 10503.8182  1.39%     -    1s
     0     0 10504.0832    0  215 10652.0000 10504.0832  1.39%     -    1s
     0     0 10504.1872    0  214 10652.0000 10504.1872  1.39%     -    1s
     0     0 10504.1937    0  214 10652.0000 10504.1937  1.39%     -    1s
     0     0 10508.4872    0  199 10652.0000 10508.4872  1.35%     -    1s
     0     0 10509.2286    0  198 10652.0000 10509.2286  1.34%     -    1s
     0     0 10509.2987    0  207 10652.0000 10509.2987  1.34%     -    1s
     0     0 10512.1221    0  203 10652.0000 10512.1221  1.31%     -    1s
     0     0 10512.8028    0  235 10652.0000 10512.8028  1.31%     -    1s
     0     0 10512.8948    0  247 10652.0000 10512.8948  1.31%     -    1s
     0     0 10517.6611    0  258 10652.0000 10517.6611  1.26%     -    1s
     0     0 10519.3110    0  267 10652.0000 10519.3110  1.25%     -    1s
     0     0 10519.6993    0  267 10652.0000 10519.6993  1.24%     -    1s
     0     0 10519.8004    0  273 10652.0000 10519.8004  1.24%     -    1s
     0     0 10521.9925    0  272 10652.0000 10521.9925  1.22%     -    1s
     0     0 10523.1217    0  278 10652.0000 10523.1217  1.21%     -    1s
     0     0 10523.3165    0  283 10652.0000 10523.3165  1.21%     -    1s
     0     0 10523.3692    0  279 10652.0000 10523.3692  1.21%     -    1s
     0     0 10525.5480    0  280 10652.0000 10525.5480  1.19%     -    1s
     0     0 10526.3322    0  280 10652.0000 10526.3322  1.18%     -    1s
     0     0 10526.4284    0  288 10652.0000 10526.4284  1.18%     -    1s
     0     0 10529.5427    0  290 10652.0000 10529.5427  1.15%     -    1s
     0     0 10530.2527    0  293 10652.0000 10530.2527  1.14%     -    1s
     0     0 10530.5231    0  293 10652.0000 10530.5231  1.14%     -    1s
     0     0 10530.8679    0  292 10652.0000 10530.8679  1.14%     -    1s
     0     0 10530.9022    0  297 10652.0000 10530.9022  1.14%     -    1s
     0     0 10532.5045    0  287 10652.0000 10532.5045  1.12%     -    1s
H    0     0                    10636.000000 10532.5045  0.97%     -    1s
     0     0 10533.1185    0  302 10636.0000 10533.1185  0.97%     -    1s
     0     0 10533.2371    0  306 10636.0000 10533.2371  0.97%     -    1s
     0     0 10536.2649    0  291 10636.0000 10536.2649  0.94%     -    1s
H    0     0                    10628.000000 10536.2649  0.86%     -    1s
     0     0 10537.2650    0  292 10628.0000 10537.2650  0.85%     -    1s
     0     0 10537.9092    0  313 10628.0000 10537.9092  0.85%     -    1s
     0     0 10538.0484    0  325 10628.0000 10538.0484  0.85%     -    1s
     0     0 10539.9898    0  322 10628.0000 10539.9898  0.83%     -    1s
     0     0 10540.5041    0  315 10628.0000 10540.5041  0.82%     -    1s
     0     0 10540.6993    0  330 10628.0000 10540.6993  0.82%     -    1s
     0     0 10540.7967    0  336 10628.0000 10540.7967  0.82%     -    1s
     0     0 10542.2241    0  339 10628.0000 10542.2241  0.81%     -    1s
     0     0 10542.5405    0  330 10628.0000 10542.5405  0.80%     -    1s
     0     0 10542.5908    0  323 10628.0000 10542.5908  0.80%     -    1s
     0     0 10544.4537    0  322 10628.0000 10544.4537  0.79%     -    2s
     0     0 10544.8852    0  320 10628.0000 10544.8852  0.78%     -    2s
     0     0 10545.0057    0  337 10628.0000 10545.0057  0.78%     -    2s
     0     0 10546.0330    0  327 10628.0000 10546.0330  0.77%     -    2s
     0     0 10546.0330    0  317 10628.0000 10546.0330  0.77%     -    2s
     0     0 10546.1610    0   81 10628.0000 10546.1610  0.77%     -    2s
     0     0 10546.1610    0  172 10628.0000 10546.1610  0.77%     -    2s
     0     0 10546.1610    0  212 10628.0000 10546.1610  0.77%     -    2s
     0     0 10546.1610    0  258 10628.0000 10546.1610  0.77%     -    2s
     0     0 10546.1610    0  274 10628.0000 10546.1610  0.77%     -    2s
     0     0 10546.1610    0  290 10628.0000 10546.1610  0.77%     -    2s
     0     0 10546.1610    0  296 10628.0000 10546.1610  0.77%     -    2s
     0     0 10546.1610    0  311 10628.0000 10546.1610  0.77%     -    2s
     0     0 10546.2049    0  310 10628.0000 10546.2049  0.77%     -    2s
     0     0 10546.2900    0  322 10628.0000 10546.2900  0.77%     -    2s
     0     0 10546.3580    0  317 10628.0000 10546.3580  0.77%     -    2s
     0     0 10546.3587    0  316 10628.0000 10546.3587  0.77%     -    2s
     0     0 10548.1107    0  315 10628.0000 10548.1107  0.75%     -    2s
     0     0 10548.5780    0  318 10628.0000 10548.5780  0.75%     -    2s
     0     0 10548.6554    0  314 10628.0000 10548.6554  0.75%     -    2s
     0     0 10552.4555    0  333 10628.0000 10552.4555  0.71%     -    2s
     0     0 10553.1044    0  339 10628.0000 10553.1044  0.70%     -    2s
     0     0 10554.0566    0  325 10628.0000 10554.0566  0.70%     -    2s
     0     0 10554.1465    0  329 10628.0000 10554.1465  0.69%     -    2s
H    0     0                    10620.000000 10554.1465  0.62%     -    2s
     0     0 10555.4025    0  328 10620.0000 10555.4025  0.61%     -    2s
H    0     0                    10612.000000 10555.4025  0.53%     -    2s
     0     0 10556.1030    0  334 10612.0000 10556.1030  0.53%     -    2s
     0     0 10556.4416    0  332 10612.0000 10556.4416  0.52%     -    2s
H    0     0                    10588.000000 10556.4416  0.30%     -    2s
     0     0 10556.6714    0  331 10588.0000 10556.6714  0.30%     -    2s
     0     0 10556.7217    0  329 10588.0000 10556.7217  0.30%     -    2s
     0     0 10559.0895    0  317 10588.0000 10559.0895  0.27%     -    3s
H    0     0                    10580.000000 10559.0895  0.20%     -    3s
H    0     0                    10572.000000 10559.0895  0.12%     -    3s
     0     0 10560.4002    0  309 10572.0000 10560.4002  0.11%     -    3s
     0     0 10560.7743    0  314 10572.0000 10560.7743  0.11%     -    3s
     0     0 10560.8924    0  320 10572.0000 10560.8924  0.11%     -    3s
     0     0 10561.9094    0  321 10572.0000 10561.9094  0.10%     -    3s
     0     0 10561.9094    0   67 10572.0000 10561.9094  0.10%     -    3s
     0     0 10561.9094    0  113 10572.0000 10561.9094  0.10%     -    3s
     0     0 10561.9094    0  128 10572.0000 10561.9094  0.10%     -    3s
     0     0 10561.9094    0  127 10572.0000 10561.9094  0.10%     -    3s
     0     0     cutoff    0      10572.0000 10572.0000  0.00%     -    3s

Cutting planes:
  Gomory: 2
  Cover: 1
  Clique: 18
  MIR: 55
  StrongCG: 21
  GUB cover: 39
  Zero half: 3

Explored 1 nodes (31460 simplex iterations) in 3.30 seconds (4.67 work units)
Thread count was 8 (of 8 available processors)

Solution count 10: 10572 10580 10588 ... 10764

Optimal solution found (tolerance 1.00e-04)
Best objective 1.057200000000e+04, best bound 1.057200000000e+04, gap 0.0000%

Gurobi 9.5.2 (mac64[arm]) logging started Thu Apr 27 19:56:22 2023

Set parameter LogFile to value "Java/output/iterative_model_full/scenario_seed_3_nJob_50_machineCount_1/mip_increment_2/log.txt"
Gurobi Optimizer version 9.5.2 build v9.5.2rc0 (mac64[arm])
Thread count: 8 physical cores, 8 logical processors, using up to 8 threads
Optimize a model with 1490 rows, 6835 columns and 52906 nonzeros
Model fingerprint: 0xb07b11aa
Variable types: 0 continuous, 6835 integer (6835 binary)
Coefficient statistics:
  Matrix range     [1e+00, 5e+02]
  Objective range  [2e+02, 5e+05]
  Bounds range     [1e+00, 1e+00]
  RHS range        [1e+00, 1e+00]
Presolve removed 676 rows and 697 columns
Presolve time: 0.06s
Presolved: 814 rows, 6138 columns, 46086 nonzeros
Variable types: 0 continuous, 6138 integer (6126 binary)

Root relaxation: objective 1.601504e+04, 3094 iterations, 0.10 seconds (0.17 work units)

    Nodes    |    Current Node    |     Objective Bounds      |     Work
 Expl Unexpl |  Obj  Depth IntInf | Incumbent    BestBd   Gap | It/Node Time

     0     0 16015.0414    0  110          - 16015.0414      -     -    0s
H    0     0                    541729.00000 16015.0414  97.0%     -    0s
H    0     0                    411533.00000 16015.0414  96.1%     -    0s
H    0     0                    216703.00000 16540.2703  92.4%     -    0s
     0     0 16540.2703    0  219 216703.000 16540.2703  92.4%     -    0s
H    0     0                    215243.00000 16540.2703  92.3%     -    0s
     0     0 16621.8159    0  219 215243.000 16621.8159  92.3%     -    0s
     0     0 16621.8159    0  220 215243.000 16621.8159  92.3%     -    0s
H    0     0                    53605.000000 16910.0155  68.5%     -    0s
     0     0 16910.0155    0  236 53605.0000 16910.0155  68.5%     -    0s
     0     0 16913.0493    0  236 53605.0000 16913.0493  68.4%     -    0s
     0     0 16913.0493    0  241 53605.0000 16913.0493  68.4%     -    0s
H    0     0                    53525.000000 16913.0493  68.4%     -    0s
     0     0 18156.9874    0  260 53525.0000 18156.9874  66.1%     -    0s
H    0     0                    38269.000000 18156.9874  52.6%     -    0s
     0     0 18347.6449    0  249 38269.0000 18347.6449  52.1%     -    0s
     0     0 18366.0538    0  259 38269.0000 18366.0538  52.0%     -    1s
     0     0 18366.0689    0  255 38269.0000 18366.0689  52.0%     -    1s
     0     0 19771.8827    0  266 38269.0000 19771.8827  48.3%     -    1s
     0     0 21023.9260    0  277 38269.0000 21023.9260  45.1%     -    1s
     0     0 21383.5202    0  281 38269.0000 21383.5202  44.1%     -    1s
     0     0 21422.6594    0  279 38269.0000 21422.6594  44.0%     -    1s
     0     0 21426.3549    0  274 38269.0000 21426.3549  44.0%     -    1s
     0     0 21435.3396    0  282 38269.0000 21435.3396  44.0%     -    1s
     0     0 21435.9571    0  294 38269.0000 21435.9571  44.0%     -    1s
     0     0 22576.3208    0  306 38269.0000 22576.3208  41.0%     -    1s
H    0     0                    38253.000000 22576.3208  41.0%     -    1s
     0     0 22805.0746    0  334 38253.0000 22805.0746  40.4%     -    1s
     0     0 22839.4631    0  348 38253.0000 22839.4631  40.3%     -    1s
     0     0 22863.5933    0  353 38253.0000 22863.5933  40.2%     -    1s
     0     0 22874.5288    0  354 38253.0000 22874.5288  40.2%     -    1s
     0     0 22877.8219    0  355 38253.0000 22877.8219  40.2%     -    1s
     0     0 22877.8515    0  364 38253.0000 22877.8515  40.2%     -    1s
     0     0 24066.4720    0  352 38253.0000 24066.4720  37.1%     -    2s
     0     0 24066.4720    0  128 38253.0000 24066.4720  37.1%     -    2s
     0     0 24066.4720    0  248 38253.0000 24066.4720  37.1%     -    2s
     0     0 24066.4720    0  269 38253.0000 24066.4720  37.1%     -    2s
     0     0 24066.4720    0  281 38253.0000 24066.4720  37.1%     -    2s
     0     0 24066.4720    0  329 38253.0000 24066.4720  37.1%     -    3s
     0     0 24092.1619    0  350 38253.0000 24092.1619  37.0%     -    3s
     0     0 24092.3038    0  352 38253.0000 24092.3038  37.0%     -    3s
     0     0 24661.5279    0  352 38253.0000 24661.5279  35.5%     -    3s
     0     0 24839.3188    0  319 38253.0000 24839.3188  35.1%     -    3s
     0     0 24891.9362    0  319 38253.0000 24891.9362  34.9%     -    3s
     0     0 25001.8485    0  353 38253.0000 25001.8485  34.6%     -    3s
     0     0 25014.3607    0  337 38253.0000 25014.3607  34.6%     -    3s
     0     0 25014.6859    0  349 38253.0000 25014.6859  34.6%     -    3s
     0     0 25273.1311    0  291 38253.0000 25273.1311  33.9%     -    3s
H    0     0                    25431.000000 25273.1311  0.62%     -    3s
     0     0 25300.3386    0  333 25431.0000 25300.3386  0.51%     -    3s
     0     0 25304.4233    0  350 25431.0000 25304.4233  0.50%     -    3s
     0     0 25359.6350    0  272 25431.0000 25359.6350  0.28%     -    3s
     0     0 25359.6350    0   80 25431.0000 25359.6350  0.28%     -    3s
     0     0 25373.0800    0   36 25431.0000 25373.0800  0.23%     -    4s
H    0     0                    25395.000000 25373.0800  0.09%     -    4s
H    0     0                    25391.000000 25373.0800  0.07%     -    4s
     0     0 25378.1556    0   28 25391.0000 25378.1556  0.05%     -    4s
     0     0 25378.1556    0   29 25391.0000 25378.1556  0.05%     -    4s
     0     0 25381.4871    0   40 25391.0000 25381.4871  0.04%     -    4s
     0     0 25387.0000    0    4 25391.0000 25387.0000  0.02%     -    4s

Cutting planes:
  Gomory: 1
  Clique: 8
  GUB cover: 1
  RLT: 2

Explored 1 nodes (50964 simplex iterations) in 4.06 seconds (7.35 work units)
Thread count was 8 (of 8 available processors)

Solution count 10: 25391 25391 25395 ... 53605

Optimal solution found (tolerance 1.00e-04)
Best objective 2.539100000000e+04, best bound 2.539100000000e+04, gap 0.0000%

Gurobi 9.5.2 (mac64[arm]) logging started Thu Apr 27 19:56:27 2023

Set parameter LogFile to value "Java/output/iterative_model_full/scenario_seed_3_nJob_50_machineCount_1/mip_increment_2/log.txt"
Gurobi Optimizer version 9.5.2 build v9.5.2rc0 (mac64[arm])
Thread count: 8 physical cores, 8 logical processors, using up to 8 threads
Optimize a model with 3034 rows, 67104 columns and 841221 nonzeros
Model fingerprint: 0x8545a3a8
Variable types: 0 continuous, 67104 integer (67104 binary)
Coefficient statistics:
  Matrix range     [1e+00, 5e+02]
  Objective range  [3e+00, 2e+07]
  Bounds range     [1e+00, 1e+00]
  RHS range        [1e+00, 1e+00]

Warning: Completing partial solution with 66960 unfixed non-continuous variables out of 67104
User MIP start produced solution with objective 29979 (0.06s)
Loaded user MIP start with objective 29979

Presolve removed 31 rows and 3423 columns
Presolve time: 0.84s
Presolved: 3003 rows, 63681 columns, 787251 nonzeros
Variable types: 0 continuous, 63681 integer (63651 binary)

Root simplex log...

Iteration    Objective       Primal Inf.    Dual Inf.      Time
   24917    2.3623479e+04   2.748836e+05   0.000000e+00      5s
   51130    2.5908778e+04   1.714874e+04   0.000000e+00     10s
   73313    2.6636828e+04   1.617166e+03   0.000000e+00     15s
   74257    2.6637316e+04   0.000000e+00   0.000000e+00     15s

Root relaxation: objective 2.663732e+04, 74257 iterations, 14.42 seconds (37.34 work units)

    Nodes    |    Current Node    |     Objective Bounds      |     Work
 Expl Unexpl |  Obj  Depth IntInf | Incumbent    BestBd   Gap | It/Node Time

     0     0 26637.3160    0  493 29979.0000 26637.3160  11.1%     -   16s
H    0     0                    29533.000000 26637.3160  9.80%     -   16s
     0     0          -    0      29533.0000 26637.3160  9.80%     -   23s

Cutting planes:
  Cover: 15
  Clique: 105
  MIR: 4
  StrongCG: 3
  GUB cover: 54
  Zero half: 1
  RLT: 20
  Relax-and-lift: 3

Explored 1 nodes (99464 simplex iterations) in 23.00 seconds (61.82 work units)
Thread count was 8 (of 8 available processors)

Solution count 2: 29533 29979 

Time limit reached
Best objective 2.953300000000e+04, best bound 2.663731597383e+04, gap 9.8049%
